(set-logic QF_S)
(declare-fun var_0xINPUT_80938 () String)
(assert (and (not (= var_0xINPUT_80938 "AA1ND6MEXd")) (= (len var_0xINPUT_80938) 0) (not (= var_0xINPUT_80938 "Example:")) (not (= var_0xINPUT_80938 "AA1ND6MEXd"))))
(check-sat var_0xINPUT_80938)